\ Model MTZ_MODEL
\ LP format - for model browsing. Use MPS format to capture full model detail.
Minimize
  p[0,1] + p[0,2] + p[0,3] + p[0,4] + p[0,5] + p[1,0] + p[1,2] + p[1,3]
   + p[1,4] + p[1,5] + p[2,0] + p[2,1] + p[2,3] + p[2,4] + p[2,5] + p[3,0]
   + p[3,1] + p[3,2] + p[3,4] + p[3,5] + p[4,0] + p[4,1] + p[4,2] + p[4,3]
   + p[4,5] + p[5,0] + p[5,1] + p[5,2] + p[5,3] + p[5,4] + dc[0] + dc[1]
   + dc[2] + dc[3] + dc[4] + dc[5] + 0 difc[1,0] + 0 difc[1,1]
   + 0 difc[2,0] + 0 difc[2,1]
Subject To
 p2: p[0,1] - 60.24090283402008 z[0,1] >= 0
 p3: p[0,1] - 62.83544027477153 z[0,1] - dcc[0,1] >= -62.83544027477153
 R2: dcc[0,1] <= 62.83544027477153
 R3: x[0,1,0] - x[1,0,0] + dif[0,1,0] >= 0
 R4: - x[0,1,0] + x[1,0,0] + dif[0,1,0] >= 0
 R5: x[0,1,1] - x[1,0,1] + dif[0,1,1] >= 0
 R6: - x[0,1,1] + x[1,0,1] + dif[0,1,1] >= 0
 p2: p[0,2] - 86.79531319341621 z[0,2] >= 0
 p3: p[0,2] - 92.52203595821686 z[0,2] - dcc[0,2] >= -92.52203595821686
 R9: dcc[0,2] <= 92.52203595821686
 R10: x[0,1,0] - x[2,0,0] + dif[0,2,0] >= 0
 R11: - x[0,1,0] + x[2,0,0] + dif[0,2,0] >= 0
 R12: x[0,1,1] - x[2,0,1] + dif[0,2,1] >= 0
 R13: - x[0,1,1] + x[2,0,1] + dif[0,2,1] >= 0
 p2: p[0,3] - 17.8323846679538 z[0,3] >= 0
 p3: p[0,3] - 21.15279401615705 z[0,3] - dcc[0,3] >= -21.15279401615705
 R16: dcc[0,3] <= 21.15279401615705
 R17: x[0,1,0] - x[3,0,0] + dif[0,3,0] >= 0
 R18: - x[0,1,0] + x[3,0,0] + dif[0,3,0] >= 0
 R19: x[0,1,1] - x[3,0,1] + dif[0,3,1] >= 0
 R20: - x[0,1,1] + x[3,0,1] + dif[0,3,1] >= 0
 p2: p[0,4] - 39.57593454576539 z[0,4] >= 0
 p3: p[0,4] - 48.32476270456235 z[0,4] - dcc[0,4] >= -48.32476270456235
 R23: dcc[0,4] <= 48.32476270456235
 R24: x[0,1,0] - x[4,0,0] + dif[0,4,0] >= 0
 R25: - x[0,1,0] + x[4,0,0] + dif[0,4,0] >= 0
 R26: x[0,1,1] - x[4,0,1] + dif[0,4,1] >= 0
 R27: - x[0,1,1] + x[4,0,1] + dif[0,4,1] >= 0
 p2: p[0,5] - 55.29261265870728 z[0,5] >= 0
 p3: p[0,5] - 58.54990985354257 z[0,5] - dcc[0,5] >= -58.54990985354257
 R30: dcc[0,5] <= 58.54990985354257
 R31: x[0,1,0] - x[5,0,0] + dif[0,5,0] >= 0
 R32: - x[0,1,0] + x[5,0,0] + dif[0,5,0] >= 0
 R33: x[0,1,1] - x[5,0,1] + dif[0,5,1] >= 0
 R34: - x[0,1,1] + x[5,0,1] + dif[0,5,1] >= 0
 p2: p[1,0] - 60.24090283402008 z[1,0] >= 0
 p3: p[1,0] - 62.83544027477153 z[1,0] - dcc[1,0] >= -62.83544027477153
 R37: dcc[1,0] <= 62.83544027477153
 R38: - x[0,0,0] + x[1,1,0] + dif[1,0,0] >= 0
 R39: x[0,0,0] - x[1,1,0] + dif[1,0,0] >= 0
 R40: - x[0,0,1] + x[1,1,1] + dif[1,0,1] >= 0
 R41: x[0,0,1] - x[1,1,1] + dif[1,0,1] >= 0
 p2: p[1,2] - 24.6289640405377 z[1,2] >= 0
 p3: p[1,2] - 32.06525332805268 z[1,2] - dcc[1,2] >= -32.06525332805268
 R44: dcc[1,2] <= 32.06525332805268
 R45: x[1,1,0] - x[2,0,0] + dif[1,2,0] >= 0
 R46: - x[1,1,0] + x[2,0,0] + dif[1,2,0] >= 0
 R47: x[1,1,1] - x[2,0,1] + dif[1,2,1] >= 0
 R48: - x[1,1,1] + x[2,0,1] + dif[1,2,1] >= 0
 p2: p[1,3] - 50.64672546537167 z[1,3] >= 0
 p3: p[1,3] - 55.41149682580558 z[1,3] - dcc[1,3] >= -55.41149682580558
 R51: dcc[1,3] <= 55.41149682580558
 R52: x[1,1,0] - x[3,0,0] + dif[1,3,0] >= 0
 R53: - x[1,1,0] + x[3,0,0] + dif[1,3,0] >= 0
 R54: x[1,1,1] - x[3,0,1] + dif[1,3,1] >= 0
 R55: - x[1,1,1] + x[3,0,1] + dif[1,3,1] >= 0
 p2: p[1,4] - 15.78059911152299 z[1,4] >= 0
 p3: p[1,4] - 25.53526720906577 z[1,4] - dcc[1,4] >= -25.53526720906577
 R58: dcc[1,4] <= 25.53526720906577
 R59: x[1,1,0] - x[4,0,0] + dif[1,4,0] >= 0
 R60: - x[1,1,0] + x[4,0,0] + dif[1,4,0] >= 0
 R61: x[1,1,1] - x[4,0,1] + dif[1,4,1] >= 0
 R62: - x[1,1,1] + x[4,0,1] + dif[1,4,1] >= 0
 p2: p[1,5] - 38.78219318116172 z[1,5] >= 0
 p3: p[1,5] - 44.26074531415451 z[1,5] - dcc[1,5] >= -44.26074531415451
 R65: dcc[1,5] <= 44.26074531415451
 R66: x[1,1,0] - x[5,0,0] + dif[1,5,0] >= 0
 R67: - x[1,1,0] + x[5,0,0] + dif[1,5,0] >= 0
 R68: x[1,1,1] - x[5,0,1] + dif[1,5,1] >= 0
 R69: - x[1,1,1] + x[5,0,1] + dif[1,5,1] >= 0
 p2: p[2,0] - 86.79531319341621 z[2,0] >= 0
 p3: p[2,0] - 92.52203595821686 z[2,0] - dcc[2,0] >= -92.52203595821686
 R72: dcc[2,0] <= 92.52203595821686
 R73: - x[0,0,0] + x[2,1,0] + dif[2,0,0] >= 0
 R74: x[0,0,0] - x[2,1,0] + dif[2,0,0] >= 0
 R75: - x[0,0,1] + x[2,1,1] + dif[2,0,1] >= 0
 R76: x[0,0,1] - x[2,1,1] + dif[2,0,1] >= 0
 p2: p[2,1] - 24.6289640405377 z[2,1] >= 0
 p3: p[2,1] - 32.06525332805268 z[2,1] - dcc[2,1] >= -32.06525332805268
 R79: dcc[2,1] <= 32.06525332805268
 R80: - x[1,0,0] + x[2,1,0] + dif[2,1,0] >= 0
 R81: x[1,0,0] - x[2,1,0] + dif[2,1,0] >= 0
 R82: - x[1,0,1] + x[2,1,1] + dif[2,1,1] >= 0
 R83: x[1,0,1] - x[2,1,1] + dif[2,1,1] >= 0
 p2: p[2,3] - 75.5969266428131 z[2,3] >= 0
 p3: p[2,3] - 83.13459334891542 z[2,3] - dcc[2,3] >= -83.13459334891542
 R86: dcc[2,3] <= 83.13459334891542
 R87: x[2,1,0] - x[3,0,0] + dif[2,3,0] >= 0
 R88: - x[2,1,0] + x[3,0,0] + dif[2,3,0] >= 0
 R89: x[2,1,1] - x[3,0,1] + dif[2,3,1] >= 0
 R90: - x[2,1,1] + x[3,0,1] + dif[2,3,1] >= 0
 p2: p[2,4] - 42.78306927125032 z[2,4] >= 0
 p3: p[2,4] - 54.70104753493106 z[2,4] - dcc[2,4] >= -54.70104753493106
 R93: dcc[2,4] <= 54.70104753493106
 R94: x[2,1,0] - x[4,0,0] + dif[2,4,0] >= 0
 R95: - x[2,1,0] + x[4,0,0] + dif[2,4,0] >= 0
 R96: x[2,1,1] - x[4,0,1] + dif[2,4,1] >= 0
 R97: - x[2,1,1] + x[4,0,1] + dif[2,4,1] >= 0
 p2: p[2,5] - 59.12300649418422 z[2,5] >= 0
 p3: p[2,5] - 66.5938889680987 z[2,5] - dcc[2,5] >= -66.5938889680987
 R100: dcc[2,5] <= 66.5938889680987
 R101: x[2,1,0] - x[5,0,0] + dif[2,5,0] >= 0
 R102: - x[2,1,0] + x[5,0,0] + dif[2,5,0] >= 0
 R103: x[2,1,1] - x[5,0,1] + dif[2,5,1] >= 0
 R104: - x[2,1,1] + x[5,0,1] + dif[2,5,1] >= 0
 p2: p[3,0] - 17.8323846679538 z[3,0] >= 0
 p3: p[3,0] - 21.15279401615705 z[3,0] - dcc[3,0] >= -21.15279401615705
 R107: dcc[3,0] <= 21.15279401615705
 R108: - x[0,0,0] + x[3,1,0] + dif[3,0,0] >= 0
 R109: x[0,0,0] - x[3,1,0] + dif[3,0,0] >= 0
 R110: - x[0,0,1] + x[3,1,1] + dif[3,0,1] >= 0
 R111: x[0,0,1] - x[3,1,1] + dif[3,0,1] >= 0
 p2: p[3,1] - 50.64672546537167 z[3,1] >= 0
 p3: p[3,1] - 55.41149682580558 z[3,1] - dcc[3,1] >= -55.41149682580558
 R114: dcc[3,1] <= 55.41149682580558
 R115: - x[1,0,0] + x[3,1,0] + dif[3,1,0] >= 0
 R116: x[1,0,0] - x[3,1,0] + dif[3,1,0] >= 0
 R117: - x[1,0,1] + x[3,1,1] + dif[3,1,1] >= 0
 R118: x[1,0,1] - x[3,1,1] + dif[3,1,1] >= 0
 p2: p[3,2] - 75.5969266428131 z[3,2] >= 0
 p3: p[3,2] - 83.13459334891542 z[3,2] - dcc[3,2] >= -83.13459334891542
 R121: dcc[3,2] <= 83.13459334891542
 R122: - x[2,0,0] + x[3,1,0] + dif[3,2,0] >= 0
 R123: x[2,0,0] - x[3,1,0] + dif[3,2,0] >= 0
 R124: - x[2,0,1] + x[3,1,1] + dif[3,2,1] >= 0
 R125: x[2,0,1] - x[3,1,1] + dif[3,2,1] >= 0
 p2: p[3,4] - 35.68416261567624 z[3,4] >= 0
 p3: p[3,4] - 46.13743814513366 z[3,4] - dcc[3,4] >= -46.13743814513366
 R128: dcc[3,4] <= 46.13743814513366
 R129: x[3,1,0] - x[4,0,0] + dif[3,4,0] >= 0
 R130: - x[3,1,0] + x[4,0,0] + dif[3,4,0] >= 0
 R131: x[3,1,1] - x[4,0,1] + dif[3,4,1] >= 0
 R132: - x[3,1,1] + x[4,0,1] + dif[3,4,1] >= 0
 p2: p[3,5] - 59.26715378426488 z[3,5] >= 0
 p3: p[3,5] - 64.9457051556156 z[3,5] - dcc[3,5] >= -64.9457051556156
 R135: dcc[3,5] <= 64.9457051556156
 R136: x[3,1,0] - x[5,0,0] + dif[3,5,0] >= 0
 R137: - x[3,1,0] + x[5,0,0] + dif[3,5,0] >= 0
 R138: x[3,1,1] - x[5,0,1] + dif[3,5,1] >= 0
 R139: - x[3,1,1] + x[5,0,1] + dif[3,5,1] >= 0
 p2: p[4,0] - 39.57593454576539 z[4,0] >= 0
 p3: p[4,0] - 48.32476270456235 z[4,0] - dcc[4,0] >= -48.32476270456235
 R142: dcc[4,0] <= 48.32476270456235
 R143: - x[0,0,0] + x[4,1,0] + dif[4,0,0] >= 0
 R144: x[0,0,0] - x[4,1,0] + dif[4,0,0] >= 0
 R145: - x[0,0,1] + x[4,1,1] + dif[4,0,1] >= 0
 R146: x[0,0,1] - x[4,1,1] + dif[4,0,1] >= 0
 p2: p[4,1] - 15.78059911152299 z[4,1] >= 0
 p3: p[4,1] - 25.53526720906577 z[4,1] - dcc[4,1] >= -25.53526720906577
 R149: dcc[4,1] <= 25.53526720906577
 R150: - x[1,0,0] + x[4,1,0] + dif[4,1,0] >= 0
 R151: x[1,0,0] - x[4,1,0] + dif[4,1,0] >= 0
 R152: - x[1,0,1] + x[4,1,1] + dif[4,1,1] >= 0
 R153: x[1,0,1] - x[4,1,1] + dif[4,1,1] >= 0
 p2: p[4,2] - 42.78306927125032 z[4,2] >= 0
 p3: p[4,2] - 54.70104753493106 z[4,2] - dcc[4,2] >= -54.70104753493106
 R156: dcc[4,2] <= 54.70104753493106
 R157: - x[2,0,0] + x[4,1,0] + dif[4,2,0] >= 0
 R158: x[2,0,0] - x[4,1,0] + dif[4,2,0] >= 0
 R159: - x[2,0,1] + x[4,1,1] + dif[4,2,1] >= 0
 R160: x[2,0,1] - x[4,1,1] + dif[4,2,1] >= 0
 p2: p[4,3] - 35.68416261567624 z[4,3] >= 0
 p3: p[4,3] - 46.13743814513366 z[4,3] - dcc[4,3] >= -46.13743814513366
 R163: dcc[4,3] <= 46.13743814513366
 R164: - x[3,0,0] + x[4,1,0] + dif[4,3,0] >= 0
 R165: x[3,0,0] - x[4,1,0] + dif[4,3,0] >= 0
 R166: - x[3,0,1] + x[4,1,1] + dif[4,3,1] >= 0
 R167: x[3,0,1] - x[4,1,1] + dif[4,3,1] >= 0
 p2: p[4,5] - 25.39685752548267 z[4,5] >= 0
 p3: p[4,5] - 35.86905538932629 z[4,5] - dcc[4,5] >= -35.86905538932629
 R170: dcc[4,5] <= 35.86905538932629
 R171: x[4,1,0] - x[5,0,0] + dif[4,5,0] >= 0
 R172: - x[4,1,0] + x[5,0,0] + dif[4,5,0] >= 0
 R173: x[4,1,1] - x[5,0,1] + dif[4,5,1] >= 0
 R174: - x[4,1,1] + x[5,0,1] + dif[4,5,1] >= 0
 p2: p[5,0] - 55.29261265870728 z[5,0] >= 0
 p3: p[5,0] - 58.54990985354257 z[5,0] - dcc[5,0] >= -58.54990985354257
 R177: dcc[5,0] <= 58.54990985354257
 R178: - x[0,0,0] + x[5,1,0] + dif[5,0,0] >= 0
 R179: x[0,0,0] - x[5,1,0] + dif[5,0,0] >= 0
 R180: - x[0,0,1] + x[5,1,1] + dif[5,0,1] >= 0
 R181: x[0,0,1] - x[5,1,1] + dif[5,0,1] >= 0
 p2: p[5,1] - 38.78219318116172 z[5,1] >= 0
 p3: p[5,1] - 44.26074531415451 z[5,1] - dcc[5,1] >= -44.26074531415451
 R184: dcc[5,1] <= 44.26074531415451
 R185: - x[1,0,0] + x[5,1,0] + dif[5,1,0] >= 0
 R186: x[1,0,0] - x[5,1,0] + dif[5,1,0] >= 0
 R187: - x[1,0,1] + x[5,1,1] + dif[5,1,1] >= 0
 R188: x[1,0,1] - x[5,1,1] + dif[5,1,1] >= 0
 p2: p[5,2] - 59.12300649418422 z[5,2] >= 0
 p3: p[5,2] - 66.5938889680987 z[5,2] - dcc[5,2] >= -66.5938889680987
 R191: dcc[5,2] <= 66.5938889680987
 R192: - x[2,0,0] + x[5,1,0] + dif[5,2,0] >= 0
 R193: x[2,0,0] - x[5,1,0] + dif[5,2,0] >= 0
 R194: - x[2,0,1] + x[5,1,1] + dif[5,2,1] >= 0
 R195: x[2,0,1] - x[5,1,1] + dif[5,2,1] >= 0
 p2: p[5,3] - 59.26715378426488 z[5,3] >= 0
 p3: p[5,3] - 64.9457051556156 z[5,3] - dcc[5,3] >= -64.9457051556156
 R198: dcc[5,3] <= 64.9457051556156
 R199: - x[3,0,0] + x[5,1,0] + dif[5,3,0] >= 0
 R200: x[3,0,0] - x[5,1,0] + dif[5,3,0] >= 0
 R201: - x[3,0,1] + x[5,1,1] + dif[5,3,1] >= 0
 R202: x[3,0,1] - x[5,1,1] + dif[5,3,1] >= 0
 p2: p[5,4] - 25.39685752548267 z[5,4] >= 0
 p3: p[5,4] - 35.86905538932629 z[5,4] - dcc[5,4] >= -35.86905538932629
 R205: dcc[5,4] <= 35.86905538932629
 R206: - x[4,0,0] + x[5,1,0] + dif[5,4,0] >= 0
 R207: x[4,0,0] - x[5,1,0] + dif[5,4,0] >= 0
 R208: - x[4,0,1] + x[5,1,1] + dif[5,4,1] >= 0
 R209: x[4,0,1] - x[5,1,1] + dif[5,4,1] >= 0
 R210: z[0,1] + z[0,2] + z[0,3] + z[0,4] + z[0,5] = 1
 R211: z[1,0] + z[1,2] + z[1,3] + z[1,4] + z[1,5] = 1
 R212: z[2,0] + z[2,1] + z[2,3] + z[2,4] + z[2,5] = 1
 R213: z[3,0] + z[3,1] + z[3,2] + z[3,4] + z[3,5] = 1
 R214: z[4,0] + z[4,1] + z[4,2] + z[4,3] + z[4,5] = 1
 R215: z[5,0] + z[5,1] + z[5,2] + z[5,3] + z[5,4] = 1
 R216: z[1,0] + z[2,0] + z[3,0] + z[4,0] + z[5,0] = 1
 R217: z[0,1] + z[2,1] + z[3,1] + z[4,1] + z[5,1] = 1
 R218: z[0,2] + z[1,2] + z[3,2] + z[4,2] + z[5,2] = 1
 R219: z[0,3] + z[1,3] + z[2,3] + z[4,3] + z[5,3] = 1
 R220: z[0,4] + z[1,4] + z[2,4] + z[3,4] + z[5,4] = 1
 R221: z[0,5] + z[1,5] + z[2,5] + z[3,5] + z[4,5] = 1
 rest7: z[0,1] + z[1,0] <= 1
 rest7: z[0,2] + z[2,0] <= 1
 rest7: z[0,3] + z[3,0] <= 1
 rest7: z[0,4] + z[4,0] <= 1
 rest7: z[0,5] + z[5,0] <= 1
 rest7: z[0,1] + z[1,0] <= 1
 rest7: z[1,2] + z[2,1] <= 1
 rest7: z[1,3] + z[3,1] <= 1
 rest7: z[1,4] + z[4,1] <= 1
 rest7: z[1,5] + z[5,1] <= 1
 rest7: z[0,2] + z[2,0] <= 1
 rest7: z[1,2] + z[2,1] <= 1
 rest7: z[2,3] + z[3,2] <= 1
 rest7: z[2,4] + z[4,2] <= 1
 rest7: z[2,5] + z[5,2] <= 1
 rest7: z[0,3] + z[3,0] <= 1
 rest7: z[1,3] + z[3,1] <= 1
 rest7: z[2,3] + z[3,2] <= 1
 rest7: z[3,4] + z[4,3] <= 1
 rest7: z[3,5] + z[5,3] <= 1
 rest7: z[0,4] + z[4,0] <= 1
 rest7: z[1,4] + z[4,1] <= 1
 rest7: z[2,4] + z[4,2] <= 1
 rest7: z[3,4] + z[4,3] <= 1
 rest7: z[4,5] + z[5,4] <= 1
 rest7: z[0,5] + z[5,0] <= 1
 rest7: z[1,5] + z[5,1] <= 1
 rest7: z[2,5] + z[5,2] <= 1
 rest7: z[3,5] + z[5,3] <= 1
 rest7: z[4,5] + z[5,4] <= 1
 R252: 6 z[1,2] + sc[1] - sc[2] <= 5
 R253: 6 z[1,3] + sc[1] - sc[3] <= 5
 R254: 6 z[1,4] + sc[1] - sc[4] <= 5
 R255: 6 z[1,5] + sc[1] - sc[5] <= 5
 R256: 6 z[2,1] - sc[1] + sc[2] <= 5
 R257: 6 z[2,3] + sc[2] - sc[3] <= 5
 R258: 6 z[2,4] + sc[2] - sc[4] <= 5
 R259: 6 z[2,5] + sc[2] - sc[5] <= 5
 R260: 6 z[3,1] - sc[1] + sc[3] <= 5
 R261: 6 z[3,2] - sc[2] + sc[3] <= 5
 R262: 6 z[3,4] + sc[3] - sc[4] <= 5
 R263: 6 z[3,5] + sc[3] - sc[5] <= 5
 R264: 6 z[4,1] - sc[1] + sc[4] <= 5
 R265: 6 z[4,2] - sc[2] + sc[4] <= 5
 R266: 6 z[4,3] - sc[3] + sc[4] <= 5
 R267: 6 z[4,5] + sc[4] - sc[5] <= 5
 R268: 6 z[5,1] - sc[1] + sc[5] <= 5
 R269: 6 z[5,2] - sc[2] + sc[5] <= 5
 R270: 6 z[5,3] - sc[3] + sc[5] <= 5
 R271: 6 z[5,4] - sc[4] + sc[5] <= 5
 rest10: sc[0] = 0
 rest11: sc[1] >= 1
 rest11: sc[2] >= 1
 rest11: sc[3] >= 1
 rest11: sc[4] >= 1
 rest11: sc[5] >= 1
 R278: dc[0] <= 0.5020710656993626
 R279: - x[0,0,0] + x[0,1,0] + difc[0,0] >= 0
 R280: x[0,0,0] - x[0,1,0] + difc[0,0] >= 0
 R281: - x[0,0,1] + x[0,1,1] + difc[0,1] >= 0
 R282: x[0,0,1] - x[0,1,1] + difc[0,1] >= 0
 u0: landa[1,0] - landa[1,1] + min[1] - max[1] = 0
 u1: min[1] + max[1] = 3
 u2: 3 u[1] + max[1] <= 3
 u3: - 3 u[1] + min[1] <= 0
 R287: dc[1] = 5.714939288506626
 R288: landa[1,0] - sublanda[1,0,1] - 4 s[1,0,0] >= -3
 R289: landa[1,0] - sublanda[1,0,1] + 4 s[1,0,0] <= 5
 R290: landa[1,0] - sublanda[1,0,2] - 4 s[1,0,1] >= -2
 R291: landa[1,0] - sublanda[1,0,2] + 4 s[1,0,1] <= 6
 R292: landa[1,0] - sublanda[1,0,3] - 4 s[1,0,2] >= -1
 R293: landa[1,0] - sublanda[1,0,3] + 4 s[1,0,2] <= 7
 R294: sublanda[1,0,0] - s[1,0,0] <= 0
 R295: sublanda[1,0,3] - s[1,0,2] <= 0
 R296: sublanda[1,0,1] - s[1,0,0] - s[1,0,1] <= 0
 R297: sublanda[1,0,2] - s[1,0,1] - s[1,0,2] <= 0
 R298: s[1,0,0] + s[1,0,1] + s[1,0,2] = 1
 R299: sublanda[1,0,0] + sublanda[1,0,1] + sublanda[1,0,2]
   + sublanda[1,0,3] = 1
 seg1: x[1,0,0] - 70.92212521165935 sublanda[1,0,0]
   - 69.29179815641317 sublanda[1,0,1] - 70.01390837931959 sublanda[1,0,2]
   - 71.86700853228969 sublanda[1,0,3] = 0
 seg1: x[1,0,1] - 42.02592341427457 sublanda[1,0,0]
   - 43.01130739513953 sublanda[1,0,1] - 44.77411899108136 sublanda[1,0,2]
   - 44.33256749932175 sublanda[1,0,3] = 0
 R302: landa[1,1] - sublanda[1,1,1] - 4 s[1,1,0] >= -3
 R303: landa[1,1] - sublanda[1,1,1] + 4 s[1,1,0] <= 5
 R304: landa[1,1] - sublanda[1,1,2] - 4 s[1,1,1] >= -2
 R305: landa[1,1] - sublanda[1,1,2] + 4 s[1,1,1] <= 6
 R306: landa[1,1] - sublanda[1,1,3] - 4 s[1,1,2] >= -1
 R307: landa[1,1] - sublanda[1,1,3] + 4 s[1,1,2] <= 7
 R308: sublanda[1,1,0] - s[1,1,0] <= 0
 R309: sublanda[1,1,3] - s[1,1,2] <= 0
 R310: sublanda[1,1,1] - s[1,1,0] - s[1,1,1] <= 0
 R311: sublanda[1,1,2] - s[1,1,1] - s[1,1,2] <= 0
 R312: s[1,1,0] + s[1,1,1] + s[1,1,2] = 1
 R313: sublanda[1,1,0] + sublanda[1,1,1] + sublanda[1,1,2]
   + sublanda[1,1,3] = 1
 seg1: x[1,1,0] - 70.92212521165935 sublanda[1,1,0]
   - 69.29179815641317 sublanda[1,1,1] - 70.01390837931959 sublanda[1,1,2]
   - 71.86700853228969 sublanda[1,1,3] = 0
 seg1: x[1,1,1] - 42.02592341427457 sublanda[1,1,0]
   - 43.01130739513953 sublanda[1,1,1] - 44.77411899108136 sublanda[1,1,2]
   - 44.33256749932175 sublanda[1,1,3] = 0
 u0: landa[2,0] - landa[2,1] + min[2] - max[2] = 0
 u1: min[2] + max[2] = 3
 u2: 3 u[2] + max[2] <= 3
 u3: - 3 u[2] + min[2] <= 0
 R320: dc[2] = 10.61254330123872
 R321: landa[2,0] - sublanda[2,0,1] - 4 s[2,0,0] >= -3
 R322: landa[2,0] - sublanda[2,0,1] + 4 s[2,0,0] <= 5
 R323: landa[2,0] - sublanda[2,0,2] - 4 s[2,0,1] >= -2
 R324: landa[2,0] - sublanda[2,0,2] + 4 s[2,0,1] <= 6
 R325: landa[2,0] - sublanda[2,0,3] - 4 s[2,0,2] >= -1
 R326: landa[2,0] - sublanda[2,0,3] + 4 s[2,0,2] <= 7
 R327: sublanda[2,0,0] - s[2,0,0] <= 0
 R328: sublanda[2,0,3] - s[2,0,2] <= 0
 R329: sublanda[2,0,1] - s[2,0,0] - s[2,0,1] <= 0
 R330: sublanda[2,0,2] - s[2,0,1] - s[2,0,2] <= 0
 R331: s[2,0,0] + s[2,0,1] + s[2,0,2] = 1
 R332: sublanda[2,0,0] + sublanda[2,0,1] + sublanda[2,0,2]
   + sublanda[2,0,3] = 1
 seg1: x[2,0,0] - 90.6399978727293 sublanda[2,0,0]
   - 93.88677782153484 sublanda[2,0,1] - 95.77522124602633 sublanda[2,0,2]
   - 93.11103156973778 sublanda[2,0,3] = 0
 seg1: x[2,0,1] - 27.26816723550778 sublanda[2,0,0]
   - 28.67259891166625 sublanda[2,0,1] - 25.68131326809127 sublanda[2,0,2]
   - 23.35406129683408 sublanda[2,0,3] = 0
 R335: landa[2,1] - sublanda[2,1,1] - 4 s[2,1,0] >= -3
 R336: landa[2,1] - sublanda[2,1,1] + 4 s[2,1,0] <= 5
 R337: landa[2,1] - sublanda[2,1,2] - 4 s[2,1,1] >= -2
 R338: landa[2,1] - sublanda[2,1,2] + 4 s[2,1,1] <= 6
 R339: landa[2,1] - sublanda[2,1,3] - 4 s[2,1,2] >= -1
 R340: landa[2,1] - sublanda[2,1,3] + 4 s[2,1,2] <= 7
 R341: sublanda[2,1,0] - s[2,1,0] <= 0
 R342: sublanda[2,1,3] - s[2,1,2] <= 0
 R343: sublanda[2,1,1] - s[2,1,0] - s[2,1,1] <= 0
 R344: sublanda[2,1,2] - s[2,1,1] - s[2,1,2] <= 0
 R345: s[2,1,0] + s[2,1,1] + s[2,1,2] = 1
 R346: sublanda[2,1,0] + sublanda[2,1,1] + sublanda[2,1,2]
   + sublanda[2,1,3] = 1
 seg1: x[2,1,0] - 90.6399978727293 sublanda[2,1,0]
   - 93.88677782153484 sublanda[2,1,1] - 95.77522124602633 sublanda[2,1,2]
   - 93.11103156973778 sublanda[2,1,3] = 0
 seg1: x[2,1,1] - 27.26816723550778 sublanda[2,1,0]
   - 28.67259891166625 sublanda[2,1,1] - 25.68131326809127 sublanda[2,1,2]
   - 23.35406129683408 sublanda[2,1,3] = 0
 R349: dc[3] <= 2.937604016603414
 envConv: mu[3,0] + mu[3,1] + mu[3,2] + mu[3,3] + mu[3,4] = 1
 inP1: x[3,0,0] - 17.04191048719403 mu[3,0] - 18.96722451571166 mu[3,1]
   - 19.74691969382646 mu[3,2] - 17.82160566530884 mu[3,3]
   - 17.04191048719402 mu[3,4] = 0
 inP1: x[3,1,0] - 17.04191048719403 mu[3,0] - 18.96722451571166 mu[3,1]
   - 19.74691969382646 mu[3,2] - 17.82160566530884 mu[3,3]
   - 17.04191048719402 mu[3,4] = 0
 inP1: x[3,0,1] - 52.37262998800354 mu[3,0] - 51.59293480988875 mu[3,1]
   - 53.51824883840638 mu[3,2] - 54.29794401652119 mu[3,3]
   - 52.37262998800357 mu[3,4] = 0
 inP1: x[3,1,1] - 52.37262998800354 mu[3,0] - 51.59293480988875 mu[3,1]
   - 53.51824883840638 mu[3,2] - 54.29794401652119 mu[3,3]
   - 52.37262998800357 mu[3,4] = 0
 R355: - x[3,0,0] + x[3,1,0] + difc[3,0] >= 0
 R356: x[3,0,0] - x[3,1,0] + difc[3,0] >= 0
 R357: - x[3,0,1] + x[3,1,1] + difc[3,1] >= 0
 R358: x[3,0,1] - x[3,1,1] + difc[3,1] >= 0
 R359: dc[4] <= 8.257891942901969
 envConv: mu[4,0] + mu[4,1] + mu[4,2] + mu[4,3] = 1
 inP1: x[4,0,0] - 62.5741598854197 mu[4,0] - 54.50710753663909 mu[4,1]
   - 57.01204471885133 mu[4,2] - 62.57415988541973 mu[4,3] = 0
 inP1: x[4,1,0] - 62.5741598854197 mu[4,0] - 54.50710753663909 mu[4,1]
   - 57.01204471885133 mu[4,2] - 62.57415988541973 mu[4,3] = 0
 inP1: x[4,0,1] - 59.82094948530023 mu[4,0] - 61.58601201752895 mu[4,1]
   - 53.71720848371169 mu[4,2] - 59.82094948530014 mu[4,3] = 0
 inP1: x[4,1,1] - 59.82094948530023 mu[4,0] - 61.58601201752895 mu[4,1]
   - 53.71720848371169 mu[4,2] - 59.82094948530014 mu[4,3] = 0
 R365: - x[4,0,0] + x[4,1,0] + difc[4,0] >= 0
 R366: x[4,0,0] - x[4,1,0] + difc[4,0] >= 0
 R367: - x[4,0,1] + x[4,1,1] + difc[4,1] >= 0
 R368: x[4,0,1] - x[4,1,1] + difc[4,1] >= 0
 R369: dc[5] <= 2.769927010980425
 envConv: mu[5,0] + mu[5,1] + mu[5,2] + mu[5,3] + mu[5,4] + mu[5,5]
   + mu[5,6] + mu[5,7] = 1
 inP1: x[5,0,0] - 70.63091330510846 mu[5,0] - 71.80005165540405 mu[5,1]
   - 72.83455998058527 mu[5,2] - 72.95543241166659 mu[5,3]
   - 72.07164954269552 mu[5,4] - 70.84871789989238 mu[5,5]
   - 70.20752995354722 mu[5,6] - 70.63091330510846 mu[5,7] = 0
 inP1: x[5,1,0] - 70.63091330510846 mu[5,0] - 71.80005165540405 mu[5,1]
   - 72.83455998058527 mu[5,2] - 72.95543241166659 mu[5,3]
   - 72.07164954269552 mu[5,4] - 70.84871789989238 mu[5,5]
   - 70.20752995354722 mu[5,6] - 70.63091330510846 mu[5,7] = 0
 inP1: x[5,0,1] - 83.90598833733448 mu[5,0] - 83.51515924735538 mu[5,1]
   - 84.18555046510551 mu[5,2] - 85.41234373013032 mu[5,3]
   - 86.27173869184411 mu[5,4] - 86.11659341561392 mu[5,5]
   - 85.06373545882799 mu[5,6] - 83.90598833733448 mu[5,7] = 0
 inP1: x[5,1,1] - 83.90598833733448 mu[5,0] - 83.51515924735538 mu[5,1]
   - 84.18555046510551 mu[5,2] - 85.41234373013032 mu[5,3]
   - 86.27173869184411 mu[5,4] - 86.11659341561392 mu[5,5]
   - 85.06373545882799 mu[5,6] - 83.90598833733448 mu[5,7] = 0
 R375: - x[5,0,0] + x[5,1,0] + difc[5,0] >= 0
 R376: x[5,0,0] - x[5,1,0] + difc[5,0] >= 0
 R377: - x[5,0,1] + x[5,1,1] + difc[5,1] >= 0
 R378: x[5,0,1] - x[5,1,1] + difc[5,1] >= 0
 qc0: [ - dcc[0,1] ^2 + dif[0,1,0] ^2 + dif[0,1,1] ^2 ] <= 0
 qc1: [ - dcc[0,2] ^2 + dif[0,2,0] ^2 + dif[0,2,1] ^2 ] <= 0
 qc2: [ - dcc[0,3] ^2 + dif[0,3,0] ^2 + dif[0,3,1] ^2 ] <= 0
 qc3: [ - dcc[0,4] ^2 + dif[0,4,0] ^2 + dif[0,4,1] ^2 ] <= 0
 qc4: [ - dcc[0,5] ^2 + dif[0,5,0] ^2 + dif[0,5,1] ^2 ] <= 0
 qc5: [ - dcc[1,0] ^2 + dif[1,0,0] ^2 + dif[1,0,1] ^2 ] <= 0
 qc6: [ - dcc[1,2] ^2 + dif[1,2,0] ^2 + dif[1,2,1] ^2 ] <= 0
 qc7: [ - dcc[1,3] ^2 + dif[1,3,0] ^2 + dif[1,3,1] ^2 ] <= 0
 qc8: [ - dcc[1,4] ^2 + dif[1,4,0] ^2 + dif[1,4,1] ^2 ] <= 0
 qc9: [ - dcc[1,5] ^2 + dif[1,5,0] ^2 + dif[1,5,1] ^2 ] <= 0
 qc10: [ - dcc[2,0] ^2 + dif[2,0,0] ^2 + dif[2,0,1] ^2 ] <= 0
 qc11: [ - dcc[2,1] ^2 + dif[2,1,0] ^2 + dif[2,1,1] ^2 ] <= 0
 qc12: [ - dcc[2,3] ^2 + dif[2,3,0] ^2 + dif[2,3,1] ^2 ] <= 0
 qc13: [ - dcc[2,4] ^2 + dif[2,4,0] ^2 + dif[2,4,1] ^2 ] <= 0
 qc14: [ - dcc[2,5] ^2 + dif[2,5,0] ^2 + dif[2,5,1] ^2 ] <= 0
 qc15: [ - dcc[3,0] ^2 + dif[3,0,0] ^2 + dif[3,0,1] ^2 ] <= 0
 qc16: [ - dcc[3,1] ^2 + dif[3,1,0] ^2 + dif[3,1,1] ^2 ] <= 0
 qc17: [ - dcc[3,2] ^2 + dif[3,2,0] ^2 + dif[3,2,1] ^2 ] <= 0
 qc18: [ - dcc[3,4] ^2 + dif[3,4,0] ^2 + dif[3,4,1] ^2 ] <= 0
 qc19: [ - dcc[3,5] ^2 + dif[3,5,0] ^2 + dif[3,5,1] ^2 ] <= 0
 qc20: [ - dcc[4,0] ^2 + dif[4,0,0] ^2 + dif[4,0,1] ^2 ] <= 0
 qc21: [ - dcc[4,1] ^2 + dif[4,1,0] ^2 + dif[4,1,1] ^2 ] <= 0
 qc22: [ - dcc[4,2] ^2 + dif[4,2,0] ^2 + dif[4,2,1] ^2 ] <= 0
 qc23: [ - dcc[4,3] ^2 + dif[4,3,0] ^2 + dif[4,3,1] ^2 ] <= 0
 qc24: [ - dcc[4,5] ^2 + dif[4,5,0] ^2 + dif[4,5,1] ^2 ] <= 0
 qc25: [ - dcc[5,0] ^2 + dif[5,0,0] ^2 + dif[5,0,1] ^2 ] <= 0
 qc26: [ - dcc[5,1] ^2 + dif[5,1,0] ^2 + dif[5,1,1] ^2 ] <= 0
 qc27: [ - dcc[5,2] ^2 + dif[5,2,0] ^2 + dif[5,2,1] ^2 ] <= 0
 qc28: [ - dcc[5,3] ^2 + dif[5,3,0] ^2 + dif[5,3,1] ^2 ] <= 0
 qc29: [ - dcc[5,4] ^2 + dif[5,4,0] ^2 + dif[5,4,1] ^2 ] <= 0
 inC1: - 32.29877124786999 x[0,0,0] - 144.6077619799536 x[0,0,1] + [
   x[0,0,0] ^2 + x[0,0,1] ^2 ] <= -5488.59084340453
 inC1: - 32.29877124786999 x[0,1,0] - 144.6077619799536 x[0,1,1] + [
   x[0,1,0] ^2 + x[0,1,1] ^2 ] <= -5488.59084340453
 qc32: [ - dc[0] ^2 + difc[0,0] ^2 + difc[0,1] ^2 ] <= 0
 qc33: [ - dc[3] ^2 + difc[3,0] ^2 + difc[3,1] ^2 ] <= 0
 qc34: [ - dc[4] ^2 + difc[4,0] ^2 + difc[4,1] ^2 ] <= 0
 qc35: [ - dc[5] ^2 + difc[5,0] ^2 + difc[5,1] ^2 ] <= 0
Bounds
 mu[3,0] <= 1
 mu[3,1] <= 1
 mu[3,2] <= 1
 mu[3,3] <= 1
 mu[3,4] <= 1
 mu[4,0] <= 1
 mu[4,1] <= 1
 mu[4,2] <= 1
 mu[4,3] <= 1
 mu[5,0] <= 1
 mu[5,1] <= 1
 mu[5,2] <= 1
 mu[5,3] <= 1
 mu[5,4] <= 1
 mu[5,5] <= 1
 mu[5,6] <= 1
 mu[5,7] <= 1
 sublanda[1,0,0] <= 1
 sublanda[1,1,0] <= 1
 sublanda[1,0,1] <= 1
 sublanda[1,1,1] <= 1
 sublanda[1,0,2] <= 1
 sublanda[1,1,2] <= 1
 sublanda[1,0,3] <= 1
 sublanda[1,1,3] <= 1
 sublanda[2,0,0] <= 1
 sublanda[2,1,0] <= 1
 sublanda[2,0,1] <= 1
 sublanda[2,1,1] <= 1
 sublanda[2,0,2] <= 1
 sublanda[2,1,2] <= 1
 sublanda[2,0,3] <= 1
 sublanda[2,1,3] <= 1
 sc[0] <= 5
 sc[1] <= 5
 sc[2] <= 5
 sc[3] <= 5
 sc[4] <= 5
 sc[5] <= 5
Binaries
 z[0,1] z[0,2] z[0,3] z[0,4] z[0,5] z[1,0] z[1,2] z[1,3] z[1,4] z[1,5]
 z[2,0] z[2,1] z[2,3] z[2,4] z[2,5] z[3,0] z[3,1] z[3,2] z[3,4] z[3,5]
 z[4,0] z[4,1] z[4,2] z[4,3] z[4,5] z[5,0] z[5,1] z[5,2] z[5,3] z[5,4]
 s[1,0,0] s[1,1,0] s[1,0,1] s[1,1,1] s[1,0,2] s[1,1,2] s[2,0,0] s[2,1,0]
 s[2,0,1] s[2,1,1] s[2,0,2] s[2,1,2] u[1] u[2]
End
